c "201664.clq"
p edge 197 2896
e 1 17
e 1 18
e 1 19
e 1 21
e 1 22
e 1 24
e 1 25
e 1 27
e 1 29
e 1 36
e 1 38
e 1 39
e 1 43
e 1 46
e 1 47
e 1 50
e 1 72
e 1 78
e 1 86
e 1 103
e 1 105
e 1 106
e 1 119
e 1 132
e 1 135
e 1 137
e 1 147
e 1 148
e 1 156
e 1 160
e 1 170
e 1 172
e 1 177
e 1 180
e 1 197
e 2 17
e 2 18
e 2 19
e 2 20
e 2 21
e 2 22
e 2 23
e 2 28
e 2 31
e 2 32
e 2 33
e 2 34
e 2 38
e 2 39
e 2 44
e 2 46
e 2 47
e 2 54
e 2 56
e 2 57
e 2 60
e 2 61
e 2 62
e 2 72
e 2 75
e 2 81
e 2 85
e 2 86
e 2 93
e 2 96
e 2 98
e 2 105
e 2 107
e 2 111
e 2 136
e 2 140
e 2 164
e 2 166
e 2 172
e 2 174
e 2 188
e 2 191
e 3 17
e 3 18
e 3 19
e 3 20
e 3 21
e 3 24
e 3 26
e 3 27
e 3 28
e 3 29
e 3 31
e 3 34
e 3 35
e 3 36
e 3 37
e 3 38
e 3 39
e 3 41
e 3 49
e 3 51
e 3 56
e 3 58
e 3 64
e 3 70
e 3 74
e 3 79
e 3 82
e 3 83
e 3 90
e 3 95
e 3 100
e 3 113
e 3 114
e 3 117
e 3 123
e 3 125
e 3 130
e 3 131
e 3 133
e 3 146
e 3 149
e 3 156
e 3 165
e 3 168
e 3 172
e 3 181
e 3 182
e 3 196
e 3 197
e 4 17
e 4 18
e 4 19
e 4 20
e 4 23
e 4 24
e 4 25
e 4 26
e 4 27
e 4 28
e 4 29
e 4 31
e 4 33
e 4 35
e 4 37
e 4 38
e 4 40
e 4 42
e 4 44
e 4 46
e 4 49
e 4 52
e 4 59
e 4 61
e 4 65
e 4 71
e 4 75
e 4 80
e 4 81
e 4 86
e 4 87
e 4 88
e 4 89
e 4 92
e 4 96
e 4 111
e 4 115
e 4 117
e 4 118
e 4 120
e 4 121
e 4 123
e 4 138
e 4 145
e 4 147
e 4 153
e 4 186
e 4 187
e 4 189
e 5 17
e 5 18
e 5 19
e 5 21
e 5 22
e 5 23
e 5 25
e 5 29
e 5 30
e 5 31
e 5 34
e 5 39
e 5 42
e 5 44
e 5 45
e 5 51
e 5 52
e 5 54
e 5 58
e 5 59
e 5 67
e 5 68
e 5 75
e 5 76
e 5 77
e 5 80
e 5 87
e 5 95
e 5 97
e 5 108
e 5 112
e 5 114
e 5 115
e 5 126
e 5 130
e 5 134
e 5 143
e 5 149
e 5 152
e 5 153
e 5 160
e 5 164
e 5 179
e 5 191
e 5 197
e 6 17
e 6 18
e 6 19
e 6 20
e 6 21
e 6 23
e 6 24
e 6 26
e 6 28
e 6 30
e 6 35
e 6 42
e 6 43
e 6 44
e 6 46
e 6 47
e 6 54
e 6 58
e 6 64
e 6 65
e 6 66
e 6 68
e 6 76
e 6 78
e 6 84
e 6 87
e 6 96
e 6 101
e 6 104
e 6 112
e 6 129
e 6 133
e 6 136
e 6 145
e 6 147
e 6 149
e 6 159
e 6 163
e 6 189
e 6 194
e 7 17
e 7 18
e 7 19
e 7 20
e 7 21
e 7 22
e 7 23
e 7 25
e 7 26
e 7 27
e 7 28
e 7 30
e 7 33
e 7 35
e 7 36
e 7 37
e 7 38
e 7 39
e 7 46
e 7 48
e 7 49
e 7 52
e 7 54
e 7 59
e 7 65
e 7 67
e 7 70
e 7 74
e 7 75
e 7 79
e 7 80
e 7 82
e 7 89
e 7 93
e 7 99
e 7 107
e 7 109
e 7 114
e 7 125
e 7 129
e 7 131
e 7 132
e 7 139
e 7 145
e 7 146
e 7 157
e 7 167
e 7 172
e 7 175
e 7 177
e 7 179
e 7 180
e 7 183
e 7 196
e 7 197
e 8 17
e 8 18
e 8 20
e 8 21
e 8 22
e 8 24
e 8 25
e 8 26
e 8 30
e 8 34
e 8 35
e 8 37
e 8 44
e 8 45
e 8 49
e 8 51
e 8 53
e 8 55
e 8 59
e 8 60
e 8 70
e 8 72
e 8 78
e 8 79
e 8 80
e 8 83
e 8 86
e 8 89
e 8 102
e 8 106
e 8 124
e 8 131
e 8 141
e 8 154
e 8 164
e 8 174
e 8 189
e 9 17
e 9 19
e 9 20
e 9 21
e 9 22
e 9 23
e 9 24
e 9 29
e 9 33
e 9 35
e 9 38
e 9 40
e 9 45
e 9 47
e 9 49
e 9 50
e 9 65
e 9 69
e 9 72
e 9 74
e 9 75
e 9 78
e 9 84
e 9 89
e 9 94
e 9 107
e 9 109
e 9 123
e 9 133
e 9 165
e 9 193
e 10 17
e 10 18
e 10 19
e 10 20
e 10 21
e 10 22
e 10 23
e 10 25
e 10 28
e 10 33
e 10 36
e 10 42
e 10 47
e 10 50
e 10 57
e 10 59
e 10 61
e 10 67
e 10 71
e 10 84
e 10 85
e 10 87
e 10 93
e 10 98
e 10 104
e 10 111
e 10 145
e 10 164
e 10 188
e 11 17
e 11 18
e 11 19
e 11 20
e 11 22
e 11 26
e 11 27
e 11 29
e 11 30
e 11 33
e 11 34
e 11 37
e 11 42
e 11 47
e 11 48
e 11 51
e 11 53
e 11 55
e 11 59
e 11 69
e 11 82
e 11 88
e 11 98
e 11 100
e 11 109
e 11 110
e 11 127
e 11 145
e 11 146
e 11 153
e 11 158
e 11 166
e 11 178
e 11 181
e 11 185
e 11 191
e 12 17
e 12 18
e 12 19
e 12 20
e 12 21
e 12 23
e 12 24
e 12 25
e 12 26
e 12 27
e 12 28
e 12 31
e 12 32
e 12 34
e 12 38
e 12 39
e 12 47
e 12 51
e 12 54
e 12 58
e 12 62
e 12 63
e 12 66
e 12 68
e 12 69
e 12 75
e 12 76
e 12 78
e 12 80
e 12 83
e 12 86
e 12 103
e 12 106
e 12 108
e 12 114
e 12 116
e 12 117
e 12 119
e 12 121
e 12 132
e 12 135
e 12 141
e 12 151
e 12 158
e 12 161
e 12 167
e 12 171
e 12 173
e 12 174
e 12 176
e 12 177
e 12 179
e 12 181
e 12 190
e 13 17
e 13 18
e 13 19
e 13 20
e 13 22
e 13 24
e 13 25
e 13 26
e 13 30
e 13 32
e 13 36
e 13 37
e 13 41
e 13 42
e 13 47
e 13 56
e 13 61
e 13 66
e 13 69
e 13 84
e 13 87
e 13 123
e 13 125
e 13 127
e 13 132
e 13 175
e 13 176
e 14 17
e 14 18
e 14 19
e 14 20
e 14 21
e 14 22
e 14 23
e 14 26
e 14 27
e 14 29
e 14 40
e 14 42
e 14 45
e 14 55
e 14 56
e 14 86
e 14 99
e 14 102
e 14 117
e 14 127
e 14 136
e 14 156
e 14 167
e 14 169
e 14 193
e 14 196
e 15 17
e 15 18
e 15 19
e 15 20
e 15 21
e 15 22
e 15 23
e 15 24
e 15 25
e 15 30
e 15 31
e 15 32
e 15 33
e 15 34
e 15 36
e 15 41
e 15 42
e 15 48
e 15 49
e 15 56
e 15 57
e 15 60
e 15 66
e 15 77
e 15 83
e 15 84
e 15 85
e 15 92
e 15 95
e 15 102
e 15 113
e 15 114
e 15 149
e 15 166
e 15 171
e 15 183
e 15 186
e 15 191
e 15 194
e 16 17
e 16 18
e 16 29
e 16 31
e 16 32
e 16 43
e 16 48
e 16 64
e 16 78
e 16 88
e 16 97
e 16 98
e 16 107
e 16 112
e 16 116
e 16 123
e 16 163
e 16 174
e 16 194
e 16 197
e 17 18
e 17 19
e 17 20
e 17 21
e 17 22
e 17 23
e 17 24
e 17 25
e 17 26
e 17 27
e 17 28
e 17 30
e 17 31
e 17 33
e 17 34
e 17 35
e 17 36
e 17 38
e 17 40
e 17 41
e 17 43
e 17 45
e 17 46
e 17 48
e 17 49
e 17 50
e 17 51
e 17 52
e 17 53
e 17 55
e 17 56
e 17 58
e 17 62
e 17 67
e 17 69
e 17 72
e 17 73
e 17 74
e 17 75
e 17 77
e 17 78
e 17 79
e 17 85
e 17 89
e 17 97
e 17 98
e 17 103
e 17 108
e 17 118
e 17 126
e 17 135
e 17 144
e 17 152
e 17 153
e 17 154
e 17 158
e 17 161
e 17 162
e 17 167
e 17 169
e 17 173
e 17 186
e 18 19
e 18 20
e 18 21
e 18 22
e 18 23
e 18 24
e 18 25
e 18 26
e 18 27
e 18 28
e 18 30
e 18 31
e 18 32
e 18 34
e 18 36
e 18 39
e 18 40
e 18 41
e 18 42
e 18 43
e 18 44
e 18 48
e 18 50
e 18 53
e 18 54
e 18 57
e 18 58
e 18 60
e 18 63
e 18 64
e 18 66
e 18 68
e 18 72
e 18 73
e 18 78
e 18 82
e 18 83
e 18 86
e 18 87
e 18 94
e 18 96
e 18 97
e 18 100
e 18 112
e 18 115
e 18 121
e 18 124
e 18 128
e 18 132
e 18 136
e 18 138
e 18 148
e 18 154
e 18 156
e 18 160
e 18 163
e 18 169
e 18 179
e 18 181
e 18 195
e 19 20
e 19 21
e 19 22
e 19 23
e 19 24
e 19 25
e 19 26
e 19 27
e 19 28
e 19 30
e 19 31
e 19 32
e 19 33
e 19 37
e 19 39
e 19 42
e 19 43
e 19 44
e 19 45
e 19 46
e 19 47
e 19 49
e 19 54
e 19 55
e 19 60
e 19 62
e 19 66
e 19 68
e 19 69
e 19 71
e 19 72
e 19 80
e 19 82
e 19 86
e 19 91
e 19 96
e 19 97
e 19 106
e 19 118
e 19 122
e 19 123
e 19 125
e 19 127
e 19 128
e 19 129
e 19 137
e 19 148
e 19 160
e 19 161
e 19 169
e 19 181
e 19 185
e 19 190
e 20 21
e 20 22
e 20 23
e 20 24
e 20 25
e 20 27
e 20 28
e 20 31
e 20 32
e 20 33
e 20 34
e 20 35
e 20 36
e 20 37
e 20 39
e 20 40
e 20 42
e 20 43
e 20 44
e 20 45
e 20 50
e 20 51
e 20 52
e 20 53
e 20 54
e 20 57
e 20 60
e 20 61
e 20 62
e 20 63
e 20 67
e 20 72
e 20 73
e 20 74
e 20 75
e 20 78
e 20 81
e 20 82
e 20 83
e 20 84
e 20 88
e 20 89
e 20 90
e 20 93
e 20 94
e 20 101
e 20 102
e 20 119
e 20 120
e 20 130
e 20 132
e 20 138
e 20 140
e 20 142
e 20 148
e 20 150
e 20 154
e 20 155
e 20 156
e 20 157
e 20 164
e 20 165
e 20 168
e 20 174
e 20 176
e 21 22
e 21 23
e 21 24
e 21 25
e 21 26
e 21 28
e 21 29
e 21 30
e 21 32
e 21 33
e 21 34
e 21 35
e 21 37
e 21 38
e 21 40
e 21 43
e 21 46
e 21 47
e 21 48
e 21 49
e 21 51
e 21 52
e 21 53
e 21 55
e 21 58
e 21 60
e 21 62
e 21 63
e 21 65
e 21 67
e 21 69
e 21 74
e 21 77
e 21 78
e 21 79
e 21 81
e 21 85
e 21 87
e 21 94
e 21 98
e 21 99
e 21 101
e 21 103
e 21 104
e 21 105
e 21 108
e 21 115
e 21 116
e 21 122
e 21 123
e 21 124
e 21 125
e 21 126
e 21 127
e 21 130
e 21 136
e 21 138
e 21 140
e 21 143
e 21 146
e 21 151
e 21 159
e 21 162
e 21 167
e 21 169
e 21 171
e 21 172
e 21 173
e 21 174
e 21 182
e 21 183
e 21 185
e 21 187
e 21 188
e 21 192
e 21 194
e 22 23
e 22 24
e 22 25
e 22 27
e 22 28
e 22 29
e 22 30
e 22 31
e 22 34
e 22 35
e 22 36
e 22 37
e 22 39
e 22 40
e 22 41
e 22 43
e 22 44
e 22 45
e 22 47
e 22 48
e 22 49
e 22 51
e 22 53
e 22 55
e 22 56
e 22 57
e 22 60
e 22 63
e 22 64
e 22 65
e 22 66
e 22 67
e 22 70
e 22 71
e 22 77
e 22 80
e 22 81
e 22 88
e 22 89
e 22 95
e 22 97
e 22 98
e 22 99
e 22 100
e 22 101
e 22 104
e 22 108
e 22 113
e 22 115
e 22 118
e 22 121
e 22 122
e 22 127
e 22 128
e 22 129
e 22 131
e 22 133
e 22 144
e 22 146
e 22 147
e 22 152
e 22 155
e 22 161
e 22 163
e 22 168
e 22 170
e 22 177
e 22 178
e 22 184
e 22 186
e 22 190
e 22 191
e 22 197
e 23 24
e 23 25
e 23 26
e 23 27
e 23 28
e 23 29
e 23 30
e 23 31
e 23 32
e 23 33
e 23 34
e 23 35
e 23 36
e 23 40
e 23 41
e 23 43
e 23 44
e 23 45
e 23 48
e 23 49
e 23 52
e 23 53
e 23 54
e 23 55
e 23 57
e 23 60
e 23 61
e 23 65
e 23 66
e 23 67
e 23 68
e 23 69
e 23 71
e 23 74
e 23 75
e 23 76
e 23 78
e 23 82
e 23 83
e 23 84
e 23 85
e 23 90
e 23 94
e 23 96
e 23 99
e 23 100
e 23 104
e 23 106
e 23 109
e 23 111
e 23 112
e 23 113
e 23 114
e 23 117
e 23 119
e 23 120
e 23 125
e 23 128
e 23 130
e 23 132
e 23 134
e 23 136
e 23 138
e 23 142
e 23 150
e 23 156
e 23 159
e 23 160
e 23 162
e 23 164
e 23 166
e 23 167
e 23 170
e 23 174
e 23 176
e 23 178
e 23 181
e 23 182
e 23 186
e 23 188
e 23 192
e 23 196
e 24 26
e 24 27
e 24 28
e 24 29
e 24 33
e 24 36
e 24 37
e 24 38
e 24 39
e 24 41
e 24 43
e 24 44
e 24 48
e 24 52
e 24 53
e 24 55
e 24 56
e 24 57
e 24 59
e 24 66
e 24 67
e 24 71
e 24 74
e 24 76
e 24 77
e 24 80
e 24 81
e 24 84
e 24 85
e 24 89
e 24 95
e 24 99
e 24 103
e 24 104
e 24 107
e 24 111
e 24 112
e 24 114
e 24 116
e 24 117
e 24 121
e 24 122
e 24 132
e 24 134
e 24 137
e 24 141
e 24 145
e 24 152
e 24 153
e 24 154
e 24 159
e 24 162
e 24 164
e 24 166
e 24 175
e 24 179
e 24 180
e 24 181
e 24 182
e 24 183
e 24 187
e 24 194
e 25 26
e 25 27
e 25 28
e 25 29
e 25 31
e 25 32
e 25 35
e 25 36
e 25 37
e 25 38
e 25 40
e 25 41
e 25 42
e 25 43
e 25 45
e 25 46
e 25 50
e 25 51
e 25 52
e 25 54
e 25 56
e 25 59
e 25 60
e 25 61
e 25 67
e 25 76
e 25 87
e 25 98
e 25 99
e 25 102
e 25 108
e 25 110
e 25 121
e 25 126
e 25 128
e 25 144
e 25 161
e 25 165
e 25 169
e 25 170
e 25 173
e 25 178
e 25 187
e 26 27
e 26 29
e 26 30
e 26 32
e 26 35
e 26 40
e 26 44
e 26 47
e 26 48
e 26 50
e 26 51
e 26 52
e 26 64
e 26 65
e 26 69
e 26 70
e 26 73
e 26 77
e 26 81
e 26 88
e 26 90
e 26 91
e 26 92
e 26 93
e 26 107
e 26 109
e 26 115
e 26 118
e 26 135
e 26 140
e 26 142
e 26 144
e 26 145
e 26 147
e 26 149
e 26 158
e 26 165
e 26 168
e 26 169
e 26 172
e 26 178
e 26 180
e 26 184
e 26 185
e 26 191
e 26 196
e 27 29
e 27 32
e 27 33
e 27 35
e 27 38
e 27 41
e 27 44
e 27 45
e 27 46
e 27 51
e 27 52
e 27 53
e 27 54
e 27 57
e 27 63
e 27 72
e 27 73
e 27 75
e 27 84
e 27 90
e 27 92
e 27 93
e 27 103
e 27 105
e 27 113
e 27 120
e 27 129
e 27 135
e 27 138
e 27 142
e 27 151
e 27 152
e 27 158
e 27 162
e 27 173
e 27 177
e 27 178
e 27 179
e 27 183
e 27 184
e 27 185
e 27 186
e 27 197
e 28 29
e 28 30
e 28 31
e 28 32
e 28 36
e 28 38
e 28 40
e 28 41
e 28 42
e 28 45
e 28 53
e 28 58
e 28 60
e 28 62
e 28 65
e 28 66
e 28 69
e 28 74
e 28 83
e 28 105
e 28 107
e 28 108
e 28 126
e 28 137
e 28 139
e 28 143
e 28 163
e 28 180
e 28 194
e 28 195
e 29 30
e 29 33
e 29 35
e 29 37
e 29 38
e 29 39
e 29 41
e 29 43
e 29 45
e 29 48
e 29 49
e 29 50
e 29 51
e 29 52
e 29 54
e 29 57
e 29 61
e 29 62
e 29 70
e 29 71
e 29 80
e 29 87
e 29 88
e 29 89
e 29 91
e 29 94
e 29 99
e 29 112
e 29 119
e 29 133
e 29 144
e 29 155
e 29 162
e 29 167
e 29 168
e 29 171
e 29 177
e 29 181
e 29 182
e 30 31
e 30 32
e 30 33
e 30 37
e 30 40
e 30 43
e 30 53
e 30 61
e 30 62
e 30 63
e 30 65
e 30 71
e 30 72
e 30 76
e 30 83
e 30 85
e 30 91
e 30 93
e 30 94
e 30 105
e 30 108
e 30 110
e 30 121
e 30 124
e 30 136
e 30 140
e 30 141
e 30 142
e 30 146
e 30 149
e 30 151
e 30 155
e 30 157
e 30 158
e 30 166
e 30 167
e 30 182
e 31 32
e 31 34
e 31 36
e 31 37
e 31 39
e 31 50
e 31 52
e 31 55
e 31 61
e 31 66
e 31 71
e 31 75
e 31 76
e 31 83
e 31 95
e 31 96
e 31 97
e 31 102
e 31 103
e 31 116
e 31 124
e 31 130
e 31 135
e 31 141
e 31 144
e 31 194
e 32 34
e 32 38
e 32 39
e 32 40
e 32 41
e 32 42
e 32 45
e 32 48
e 32 50
e 32 56
e 32 57
e 32 58
e 32 59
e 32 60
e 32 61
e 32 63
e 32 64
e 32 73
e 32 75
e 32 76
e 32 79
e 32 80
e 32 84
e 32 85
e 32 87
e 32 89
e 32 91
e 32 101
e 32 102
e 32 103
e 32 110
e 32 117
e 32 125
e 32 131
e 32 134
e 32 137
e 32 142
e 32 148
e 32 150
e 32 154
e 32 173
e 32 178
e 32 179
e 32 181
e 32 182
e 32 187
e 32 190
e 33 34
e 33 35
e 33 36
e 33 43
e 33 44
e 33 50
e 33 51
e 33 53
e 33 56
e 33 58
e 33 63
e 33 66
e 33 68
e 33 70
e 33 77
e 33 80
e 33 86
e 33 88
e 33 90
e 33 94
e 33 95
e 33 98
e 33 99
e 33 102
e 33 120
e 33 126
e 33 129
e 33 136
e 33 139
e 33 143
e 33 160
e 33 174
e 33 180
e 33 187
e 34 37
e 34 41
e 34 42
e 34 46
e 34 70
e 34 71
e 34 79
e 34 81
e 34 84
e 34 96
e 34 97
e 34 101
e 34 102
e 34 104
e 34 112
e 34 121
e 34 135
e 34 140
e 34 141
e 34 143
e 34 144
e 34 147
e 34 148
e 34 150
e 34 152
e 34 156
e 34 159
e 34 163
e 34 166
e 34 172
e 34 173
e 34 175
e 34 180
e 34 187
e 35 42
e 35 46
e 35 47
e 35 55
e 35 56
e 35 58
e 35 65
e 35 72
e 35 73
e 35 74
e 35 77
e 35 88
e 35 91
e 35 98
e 35 101
e 35 102
e 35 104
e 35 105
e 35 107
e 35 112
e 35 119
e 35 123
e 35 124
e 35 136
e 35 139
e 35 157
e 35 162
e 35 169
e 35 170
e 35 174
e 35 188
e 35 192
e 35 196
e 36 38
e 36 40
e 36 47
e 36 58
e 36 60
e 36 62
e 36 63
e 36 68
e 36 79
e 36 93
e 36 104
e 36 105
e 36 111
e 36 115
e 36 118
e 36 121
e 36 128
e 36 135
e 36 140
e 36 147
e 36 155
e 36 156
e 36 163
e 36 170
e 36 189
e 37 39
e 37 40
e 37 41
e 37 43
e 37 44
e 37 47
e 37 48
e 37 54
e 37 56
e 37 59
e 37 60
e 37 65
e 37 66
e 37 73
e 37 74
e 37 75
e 37 85
e 37 90
e 37 91
e 37 96
e 37 98
e 37 105
e 37 106
e 37 111
e 37 119
e 37 124
e 37 125
e 37 130
e 37 134
e 37 145
e 37 149
e 37 152
e 37 158
e 37 161
e 37 170
e 37 180
e 37 192
e 38 39
e 38 41
e 38 46
e 38 49
e 38 50
e 38 54
e 38 55
e 38 57
e 38 63
e 38 69
e 38 70
e 38 80
e 38 81
e 38 82
e 38 84
e 38 85
e 38 87
e 38 106
e 38 123
e 38 132
e 38 139
e 38 141
e 38 150
e 38 151
e 38 153
e 38 156
e 38 172
e 38 184
e 38 194
e 39 46
e 39 48
e 39 52
e 39 55
e 39 57
e 39 58
e 39 59
e 39 61
e 39 67
e 39 73
e 39 76
e 39 87
e 39 89
e 39 90
e 39 91
e 39 93
e 39 109
e 39 114
e 39 119
e 39 124
e 39 125
e 39 126
e 39 127
e 39 129
e 39 133
e 39 135
e 39 136
e 39 148
e 39 164
e 39 166
e 39 167
e 39 171
e 39 179
e 39 181
e 39 193
e 39 197
e 40 44
e 40 46
e 40 52
e 40 61
e 40 64
e 40 68
e 40 92
e 40 112
e 40 113
e 40 128
e 40 129
e 40 133
e 40 143
e 40 166
e 41 45
e 41 48
e 41 49
e 41 50
e 41 55
e 41 63
e 41 64
e 41 67
e 41 70
e 41 71
e 41 73
e 41 75
e 41 78
e 41 79
e 41 82
e 41 87
e 41 100
e 41 106
e 41 109
e 41 112
e 41 137
e 41 149
e 41 151
e 41 182
e 41 183
e 41 189
e 41 193
e 42 45
e 42 49
e 42 50
e 42 59
e 42 65
e 42 70
e 42 71
e 42 72
e 42 90
e 42 94
e 42 101
e 42 106
e 42 109
e 42 111
e 42 116
e 42 123
e 42 128
e 42 154
e 42 157
e 42 168
e 42 169
e 42 176
e 42 192
e 43 46
e 43 51
e 43 63
e 43 64
e 43 65
e 43 68
e 43 69
e 43 71
e 43 72
e 43 80
e 43 83
e 43 85
e 43 87
e 43 90
e 43 93
e 43 94
e 43 97
e 43 116
e 43 121
e 43 137
e 43 139
e 43 146
e 43 148
e 43 165
e 43 170
e 43 175
e 43 178
e 43 183
e 44 47
e 44 60
e 44 62
e 44 71
e 44 73
e 44 76
e 44 81
e 44 82
e 44 104
e 44 105
e 44 136
e 44 137
e 44 140
e 44 150
e 44 158
e 44 190
e 44 193
e 45 51
e 45 52
e 45 56
e 45 57
e 45 61
e 45 63
e 45 79
e 45 107
e 45 109
e 45 110
e 45 120
e 45 134
e 45 135
e 45 140
e 45 153
e 45 156
e 45 157
e 45 172
e 45 177
e 45 194
e 46 49
e 46 53
e 46 57
e 46 70
e 46 79
e 46 82
e 46 89
e 46 92
e 46 101
e 46 104
e 46 126
e 46 129
e 46 130
e 46 151
e 46 172
e 46 188
e 47 53
e 47 61
e 47 64
e 47 66
e 47 72
e 47 76
e 47 79
e 47 90
e 47 98
e 47 101
e 47 106
e 47 114
e 47 140
e 47 142
e 47 148
e 47 150
e 47 153
e 47 155
e 47 158
e 47 163
e 47 176
e 47 180
e 47 182
e 47 191
e 48 50
e 48 59
e 48 68
e 48 69
e 48 79
e 48 81
e 48 90
e 48 100
e 48 105
e 48 118
e 48 123
e 48 125
e 48 126
e 48 129
e 48 142
e 48 152
e 48 178
e 48 188
e 49 53
e 49 55
e 49 56
e 49 57
e 49 68
e 49 109
e 49 115
e 49 149
e 49 153
e 49 158
e 49 168
e 49 183
e 50 55
e 50 58
e 50 60
e 50 62
e 50 63
e 50 76
e 50 78
e 50 91
e 50 92
e 50 95
e 50 100
e 50 101
e 50 107
e 50 114
e 50 116
e 50 118
e 50 120
e 50 121
e 50 145
e 50 150
e 50 153
e 50 154
e 50 169
e 50 171
e 50 191
e 51 70
e 51 73
e 51 77
e 51 81
e 51 86
e 51 95
e 51 96
e 51 143
e 51 157
e 51 161
e 51 165
e 51 167
e 51 173
e 51 179
e 51 181
e 51 186
e 51 188
e 52 54
e 52 59
e 52 64
e 52 65
e 52 67
e 52 68
e 52 74
e 52 76
e 52 81
e 52 82
e 52 83
e 52 86
e 52 101
e 52 111
e 52 113
e 52 117
e 52 119
e 52 133
e 52 137
e 52 142
e 52 147
e 52 173
e 52 175
e 53 54
e 53 59
e 53 62
e 53 71
e 53 73
e 53 89
e 53 97
e 53 99
e 53 102
e 53 113
e 53 119
e 53 122
e 53 134
e 53 143
e 53 157
e 53 176
e 53 182
e 54 62
e 54 64
e 54 68
e 54 70
e 54 71
e 54 74
e 54 81
e 54 83
e 54 86
e 54 90
e 54 120
e 54 123
e 54 131
e 54 138
e 54 155
e 54 171
e 54 177
e 54 189
e 54 192
e 55 56
e 55 58
e 55 66
e 55 68
e 55 69
e 55 72
e 55 73
e 55 75
e 55 77
e 55 80
e 55 103
e 55 122
e 55 124
e 55 126
e 55 131
e 55 134
e 55 139
e 55 143
e 55 145
e 55 151
e 55 168
e 55 171
e 55 179
e 55 189
e 56 59
e 56 74
e 56 76
e 56 91
e 56 95
e 56 103
e 56 107
e 56 110
e 56 116
e 56 138
e 56 151
e 56 157
e 56 159
e 56 165
e 57 58
e 57 64
e 57 82
e 57 103
e 57 108
e 57 110
e 57 122
e 57 139
e 57 140
e 57 142
e 57 144
e 57 147
e 57 151
e 58 61
e 58 65
e 58 67
e 58 74
e 58 78
e 58 85
e 58 97
e 58 98
e 58 108
e 58 110
e 58 118
e 58 120
e 58 124
e 58 137
e 58 141
e 58 155
e 58 162
e 58 174
e 58 176
e 59 63
e 59 64
e 59 73
e 59 84
e 59 86
e 59 90
e 59 92
e 59 93
e 59 96
e 59 101
e 59 103
e 59 109
e 59 152
e 59 156
e 59 171
e 59 197
e 60 62
e 60 64
e 60 79
e 60 86
e 60 88
e 60 100
e 60 101
e 60 103
e 60 105
e 60 109
e 60 110
e 60 114
e 60 117
e 60 119
e 60 124
e 60 125
e 60 129
e 60 136
e 60 143
e 60 148
e 60 156
e 60 169
e 60 172
e 60 175
e 60 193
e 61 62
e 61 67
e 61 75
e 61 80
e 61 99
e 61 103
e 61 111
e 61 117
e 61 124
e 61 125
e 61 137
e 61 151
e 61 158
e 61 165
e 61 177
e 61 183
e 61 187
e 61 193
e 62 66
e 62 69
e 62 77
e 62 108
e 62 111
e 62 122
e 62 134
e 62 166
e 62 169
e 62 170
e 63 70
e 63 81
e 63 89
e 63 108
e 63 110
e 63 113
e 63 126
e 63 138
e 63 140
e 63 152
e 63 165
e 63 190
e 63 195
e 64 74
e 64 82
e 64 94
e 64 97
e 64 112
e 64 115
e 64 121
e 64 138
e 64 196
e 65 67
e 65 70
e 65 83
e 65 95
e 65 97
e 65 99
e 65 109
e 65 111
e 65 123
e 65 130
e 65 156
e 65 167
e 65 186
e 66 78
e 66 81
e 66 84
e 66 85
e 66 96
e 66 111
e 66 112
e 66 115
e 66 122
e 66 129
e 66 132
e 66 154
e 66 184
e 67 68
e 67 69
e 67 77
e 67 79
e 67 83
e 67 92
e 67 97
e 67 100
e 67 103
e 67 114
e 67 116
e 67 128
e 67 134
e 67 141
e 67 148
e 67 153
e 67 161
e 67 162
e 67 166
e 67 182
e 67 189
e 68 72
e 68 91
e 68 92
e 68 102
e 68 122
e 68 129
e 68 131
e 68 137
e 68 148
e 68 160
e 68 183
e 68 195
e 68 197
e 69 77
e 69 80
e 69 83
e 69 84
e 69 88
e 69 92
e 69 95
e 69 109
e 69 127
e 69 133
e 69 143
e 69 144
e 69 155
e 69 174
e 69 182
e 69 192
e 69 194
e 70 82
e 70 92
e 70 94
e 70 98
e 70 102
e 70 107
e 70 121
e 70 126
e 70 129
e 70 133
e 70 134
e 70 135
e 70 144
e 70 160
e 70 171
e 70 177
e 70 195
e 71 73
e 71 122
e 71 127
e 71 139
e 71 150
e 71 159
e 71 166
e 71 172
e 71 190
e 71 193
e 72 76
e 72 77
e 72 98
e 72 104
e 72 113
e 72 115
e 72 128
e 72 130
e 72 131
e 72 135
e 72 139
e 72 142
e 72 155
e 72 158
e 72 164
e 72 165
e 72 173
e 72 177
e 72 182
e 72 186
e 72 192
e 72 193
e 73 82
e 73 89
e 73 92
e 73 106
e 73 115
e 73 116
e 73 127
e 73 134
e 73 146
e 73 162
e 73 170
e 73 175
e 73 182
e 73 185
e 73 187
e 74 88
e 74 90
e 74 91
e 74 94
e 74 98
e 74 113
e 74 127
e 74 138
e 74 141
e 74 173
e 75 79
e 75 84
e 75 90
e 75 106
e 75 107
e 75 113
e 75 121
e 75 126
e 75 131
e 75 137
e 75 141
e 75 143
e 75 177
e 76 77
e 76 88
e 76 91
e 76 99
e 76 100
e 76 103
e 76 115
e 76 120
e 76 127
e 76 128
e 76 147
e 76 148
e 76 151
e 76 162
e 76 164
e 76 176
e 76 186
e 76 187
e 77 78
e 77 85
e 77 88
e 77 100
e 77 116
e 77 139
e 77 149
e 77 153
e 77 157
e 77 190
e 78 91
e 78 123
e 78 128
e 78 132
e 78 146
e 78 150
e 78 162
e 78 195
e 79 102
e 79 104
e 79 107
e 79 108
e 79 128
e 79 135
e 79 161
e 79 171
e 79 176
e 79 189
e 79 193
e 80 85
e 80 86
e 80 100
e 80 101
e 80 111
e 80 123
e 80 127
e 80 154
e 80 155
e 80 169
e 80 191
e 81 88
e 81 97
e 81 102
e 81 104
e 81 117
e 81 118
e 81 126
e 81 163
e 81 167
e 81 170
e 81 183
e 82 92
e 82 95
e 82 100
e 82 110
e 82 117
e 82 136
e 82 141
e 82 151
e 82 155
e 82 160
e 82 167
e 82 180
e 82 183
e 82 189
e 83 86
e 83 93
e 83 96
e 83 105
e 83 110
e 83 118
e 83 120
e 83 123
e 83 137
e 83 149
e 83 160
e 83 163
e 83 167
e 83 178
e 84 91
e 84 93
e 84 94
e 84 99
e 84 102
e 84 104
e 84 105
e 84 117
e 84 121
e 84 137
e 84 142
e 84 159
e 84 186
e 84 189
e 85 87
e 85 88
e 85 91
e 85 100
e 85 101
e 85 111
e 85 112
e 85 119
e 85 128
e 85 135
e 85 136
e 85 140
e 85 144
e 85 155
e 85 162
e 85 164
e 85 180
e 85 183
e 85 186
e 86 87
e 86 92
e 86 93
e 86 94
e 86 110
e 86 111
e 86 124
e 86 138
e 86 154
e 86 155
e 86 156
e 86 163
e 86 181
e 86 190
e 86 196
e 87 93
e 87 114
e 87 118
e 87 120
e 87 131
e 87 134
e 87 144
e 87 150
e 87 153
e 87 171
e 87 186
e 87 187
e 88 89
e 88 93
e 88 94
e 88 99
e 88 115
e 88 117
e 88 125
e 88 132
e 88 148
e 88 154
e 88 161
e 89 95
e 89 106
e 89 118
e 89 155
e 89 160
e 89 161
e 89 168
e 89 171
e 89 196
e 89 197
e 90 96
e 90 100
e 90 107
e 90 109
e 90 119
e 90 122
e 90 152
e 90 162
e 90 166
e 90 172
e 90 175
e 90 176
e 91 92
e 91 95
e 91 96
e 91 97
e 91 122
e 91 124
e 91 141
e 91 146
e 91 150
e 91 160
e 91 173
e 91 194
e 92 105
e 92 108
e 92 127
e 92 128
e 92 129
e 92 149
e 92 168
e 92 178
e 92 181
e 93 96
e 93 113
e 93 119
e 93 120
e 93 124
e 93 159
e 93 163
e 93 179
e 93 180
e 93 190
e 93 191
e 93 193
e 94 95
e 94 105
e 94 107
e 94 112
e 94 139
e 94 146
e 94 159
e 94 192
e 95 132
e 95 133
e 95 138
e 95 143
e 95 158
e 95 159
e 95 178
e 95 184
e 95 185
e 95 190
e 96 99
e 96 106
e 96 124
e 96 131
e 96 133
e 96 145
e 96 147
e 96 180
e 96 186
e 97 119
e 97 122
e 97 139
e 97 175
e 97 197
e 98 104
e 98 110
e 98 183
e 99 112
e 99 116
e 99 117
e 99 120
e 99 130
e 99 132
e 99 133
e 99 142
e 99 163
e 99 168
e 99 175
e 99 187
e 99 196
e 100 106
e 100 115
e 100 134
e 100 139
e 100 140
e 100 148
e 100 167
e 100 172
e 101 114
e 101 125
e 101 126
e 101 130
e 101 133
e 101 145
e 101 147
e 101 161
e 101 168
e 101 176
e 101 179
e 101 180
e 101 193
e 101 195
e 102 110
e 102 180
e 102 188
e 102 194
e 102 197
e 103 108
e 103 116
e 103 161
e 104 106
e 104 110
e 104 113
e 104 118
e 104 120
e 104 122
e 104 131
e 104 141
e 104 144
e 104 150
e 104 161
e 104 168
e 104 179
e 104 184
e 104 185
e 104 195
e 105 118
e 105 142
e 105 143
e 105 147
e 105 149
e 105 184
e 105 189
e 105 195
e 106 170
e 106 173
e 106 187
e 106 191
e 107 108
e 107 116
e 107 118
e 107 126
e 107 130
e 107 135
e 107 138
e 107 160
e 107 188
e 107 193
e 108 109
e 108 114
e 108 129
e 108 136
e 108 145
e 108 150
e 108 151
e 108 165
e 108 167
e 108 190
e 108 195
e 109 142
e 109 146
e 109 157
e 109 169
e 110 113
e 110 114
e 110 131
e 110 139
e 110 146
e 110 157
e 110 177
e 110 183
e 110 185
e 110 191
e 110 192
e 110 193
e 111 113
e 111 115
e 111 122
e 111 128
e 111 152
e 111 175
e 112 125
e 112 127
e 112 137
e 112 157
e 112 159
e 112 188
e 113 117
e 113 119
e 113 120
e 113 131
e 113 132
e 113 147
e 113 159
e 113 160
e 113 175
e 113 191
e 113 195
e 114 116
e 114 133
e 114 152
e 114 161
e 114 177
e 114 185
e 115 121
e 115 145
e 115 151
e 116 166
e 116 185
e 117 161
e 118 130
e 118 134
e 118 140
e 118 154
e 118 175
e 118 181
e 118 185
e 119 135
e 120 168
e 120 172
e 120 190
e 120 192
e 120 196
e 121 141
e 121 149
e 121 179
e 122 125
e 122 132
e 122 134
e 122 138
e 122 144
e 122 154
e 122 168
e 122 177
e 122 181
e 122 197
e 123 130
e 123 133
e 123 142
e 123 152
e 123 155
e 123 173
e 123 181
e 123 192
e 124 147
e 124 170
e 124 176
e 124 185
e 125 127
e 125 131
e 125 146
e 125 147
e 125 174
e 125 187
e 126 143
e 126 159
e 126 163
e 126 164
e 126 171
e 127 158
e 127 165
e 127 177
e 128 130
e 128 140
e 128 153
e 128 184
e 129 141
e 130 139
e 130 143
e 130 144
e 130 184
e 130 195
e 131 145
e 131 152
e 131 159
e 131 164
e 132 150
e 132 157
e 132 165
e 132 173
e 133 153
e 133 154
e 133 174
e 133 184
e 133 185
e 133 187
e 133 196
e 134 150
e 134 151
e 134 184
e 135 136
e 135 138
e 135 145
e 136 146
e 136 160
e 136 175
e 136 186
e 137 164
e 137 178
e 137 195
e 138 169
e 138 184
e 138 191
e 138 192
e 138 197
e 139 152
e 139 166
e 139 188
e 140 144
e 140 149
e 140 179
e 140 184
e 140 192
e 141 174
e 141 176
e 141 193
e 142 165
e 142 172
e 143 157
e 143 175
e 144 146
e 144 171
e 145 148
e 145 194
e 146 196
e 147 149
e 147 156
e 147 166
e 147 185
e 147 191
e 148 164
e 148 174
e 148 184
e 148 189
e 149 153
e 149 154
e 149 165
e 150 162
e 150 163
e 150 168
e 150 178
e 151 162
e 151 170
e 151 173
e 152 159
e 152 189
e 153 156
e 153 157
e 153 158
e 153 160
e 153 170
e 153 171
e 154 178
e 154 186
e 155 158
e 156 164
e 156 196
e 157 185
e 157 195
e 158 191
e 158 194
e 159 163
e 159 176
e 160 188
e 161 169
e 161 196
e 162 189
e 163 178
e 163 179
e 164 170
e 164 190
e 164 197
e 166 190
e 166 192
e 168 188
e 169 182
e 170 174
e 170 176
e 171 183
e 171 188
e 172 182
e 173 184
e 173 192
e 174 180
e 175 188
e 176 189
e 177 195
e 180 187
e 181 193
e 186 196
e 187 195
e 188 190
e 189 194
e 191 194
